c Nemesis formula in 6CNF in accordance with DIMACS CNF format:
c    Filename: MCNC/c2670/c2670.tdl
c    Formula number 126
c    4848 variables (range: 2 - 4849)
c    1613 clauses
c
c p cnf 4849 1613
p cnf 694 1613
18	0
694	0
18	0
-19	0
17	0
33	-34	0
-33	34	0
17	19	0
-17	-19	0
-685	17	0
-685	33	0
17	33	0
-17	-33	0
685	-19	0
-685	19	0
685	-34	0
-685	34	0
19	-34	0
-19	34	0
113	116	0
-117	-687	0
115	-687	0
117	-688	0
-115	-688	0
-688	686	0
-687	686	0
626	115	0
-626	-115	0
-627	116	0
628	117	0
-628	-117	0
630	626	0
-630	-626	0
-631	627	0
632	628	0
-632	-628	0
486	-630	0
-486	630	0
486	-633	0
-486	633	0
487	-631	0
487	-634	0
488	-632	0
-488	632	0
488	-635	0
-488	635	0
-428	-486	0
-489	-486	0
-492	-486	0
-493	-486	0
-490	487	0
-490	-493	0
-490	-492	0
-490	-428	0
-428	-488	0
-491	-488	0
-492	-488	0
-493	-488	0
-436	-683	0
495	-683	0
436	-684	0
-495	-684	0
-684	493	0
-683	493	0
51	-494	0
-51	494	0
51	-495	0
-51	495	0
51	-655	0
-51	655	0
51	-665	0
-51	665	0
272	-439	0
-272	439	0
272	-440	0
-272	440	0
272	-551	0
-272	551	0
273	272	0
266	272	0
269	272	0
274	272	0
277	274	0
110	274	0
278	274	0
91	-126	0
-91	126	0
91	-127	0
-91	127	0
91	-132	0
-91	132	0
91	-134	0
-91	134	0
91	-140	0
-91	140	0
91	-147	0
-91	147	0
91	-150	0
-91	150	0
91	-155	0
-91	155	0
91	-197	0
-91	197	0
91	-208	0
-91	208	0
91	-268	0
-91	268	0
91	-278	0
-91	278	0
91	-283	0
-91	283	0
91	-285	0
-91	285	0
91	-289	0
-91	289	0
91	-330	0
-91	330	0
91	-334	0
-91	334	0
91	-338	0
-91	338	0
91	-357	0
-91	357	0
91	-361	0
-91	361	0
91	-424	0
-91	424	0
123	-124	0
-123	124	0
123	-125	0
-123	125	0
123	-129	0
-123	129	0
123	-131	0
-123	131	0
123	-144	0
-123	144	0
123	-146	0
-123	146	0
123	-200	0
-123	200	0
123	-203	0
-123	203	0
123	-207	0
-123	207	0
123	-210	0
-123	210	0
123	-275	0
-123	275	0
123	-277	0
-123	277	0
123	-280	0
-123	280	0
123	-282	0
-123	282	0
123	-358	0
-123	358	0
123	-360	0
-123	360	0
123	-423	0
-123	423	0
123	-426	0
-123	426	0
362	123	0
-362	-123	0
45	-135	0
-45	135	0
45	-136	0
-45	136	0
45	-139	0
-45	139	0
45	-141	0
-45	141	0
45	-149	0
-45	149	0
45	-151	0
-45	151	0
45	-154	0
-45	154	0
45	-156	0
-45	156	0
45	-196	0
-45	196	0
45	-198	0
-45	198	0
45	-214	0
-45	214	0
45	-267	0
-45	267	0
45	-270	0
-45	270	0
45	-284	0
-45	284	0
45	-286	0
-45	286	0
45	-288	0
-45	288	0
45	-331	0
-45	331	0
45	-333	0
-45	333	0
45	-335	0
-45	335	0
45	-337	0
-45	337	0
45	-353	0
-45	353	0
45	-356	0
-45	356	0
45	-362	0
-45	362	0
270	269	0
30	269	0
271	269	0
128	-137	0
-128	137	0
128	-138	0
-128	138	0
128	-142	0
-128	142	0
128	-145	0
-128	145	0
128	-152	0
-128	152	0
128	-157	0
-128	157	0
128	-199	0
-128	199	0
128	-201	0
-128	201	0
128	-204	0
-128	204	0
128	-211	0
-128	211	0
128	-215	0
-128	215	0
128	-271	0
-128	271	0
128	-276	0
-128	276	0
128	-281	0
-128	281	0
128	-287	0
-128	287	0
128	-332	0
-128	332	0
128	-336	0
-128	336	0
128	-354	0
-128	354	0
128	-359	0
-128	359	0
128	-427	0
-128	427	0
338	128	0
-338	-128	0
267	266	0
80	266	0
268	266	0
275	273	0
109	273	0
276	273	0
78	-347	0
-78	347	0
78	-348	0
-78	348	0
78	-408	0
-78	408	0
78	-414	0
-78	414	0
78	-420	0
-78	420	0
78	-430	0
-78	430	0
78	-434	0
-78	434	0
78	-438	0
-78	438	0
78	-443	0
-78	443	0
341	-345	0
-341	345	0
341	-346	0
-341	346	0
341	-413	0
-341	413	0
341	-419	0
-341	419	0
341	-429	0
-341	429	0
341	-433	0
-341	433	0
341	-437	0
-341	437	0
341	-442	0
-341	442	0
408	341	0
-408	-341	0
475	492	0
-475	-492	0
-476	-475	0
-477	-475	0
620	477	0
-548	-620	0
-441	-677	0
648	-677	0
441	-678	0
-648	-678	0
-678	548	0
-677	548	0
25	-648	0
-25	648	0
25	-649	0
-25	649	0
25	-652	0
-25	652	0
25	-666	0
-25	666	0
415	-444	0
-415	444	0
415	-445	0
-415	445	0
415	-497	0
-415	497	0
415	-550	0
-415	550	0
425	415	0
153	415	0
422	415	0
423	422	0
63	422	0
424	422	0
426	425	0
40	425	0
427	425	0
418	-660	0
-418	660	0
418	-661	0
-418	661	0
343	-350	0
-343	350	0
343	-351	0
-343	351	0
343	-421	0
-343	421	0
343	-485	0
-343	485	0
279	343	0
355	343	0
352	343	0
353	352	0
105	352	0
354	352	0
356	355	0
11	355	0
357	355	0
657	656	0
-657	-656	0
69	-612	0
-69	612	0
69	-613	0
-69	613	0
69	-654	0
-69	654	0
69	-657	0
-69	657	0
69	-659	0
-69	659	0
69	-667	0
-69	667	0
660	658	0
-660	-658	0
625	619	0
-625	-619	0
344	-624	0
-344	624	0
344	-625	0
-344	625	0
193	-257	0
-193	257	0
193	-258	0
-193	258	0
193	-328	0
-193	328	0
193	-349	0
-193	349	0
194	193	0
195	193	0
122	193	0
124	122	0
20	122	0
126	122	0
200	194	0
38	194	0
201	194	0
3	-259	0
-3	259	0
3	-260	0
-3	260	0
3	-593	0
-3	593	0
3	-618	0
-3	618	0
3	-623	0
-3	623	0
3	-663	0
-3	663	0
615	-621	0
-615	621	0
615	-622	0
-615	622	0
618	615	0
-618	-615	0
480	476	0
66	-483	0
-66	483	0
66	-484	0
-66	484	0
66	-571	0
-66	571	0
66	-574	0
-66	574	0
66	-664	0
-66	664	0
216	-261	0
-216	261	0
216	-262	0
-216	262	0
216	-329	0
-216	329	0
216	-435	0
-216	435	0
143	216	0
217	216	0
213	216	0
214	213	0
107	213	0
215	213	0
288	217	0
82	217	0
289	217	0
481	478	0
-481	-478	0
412	-481	0
-412	481	0
412	-482	0
-412	482	0
205	-416	0
-205	416	0
205	-417	0
-205	417	0
202	205	0
133	205	0
130	205	0
131	130	0
67	130	0
132	130	0
203	202	0
74	202	0
204	202	0
50	-650	0
-50	650	0
50	-651	0
-50	651	0
50	-653	0
-50	653	0
50	-668	0
-50	668	0
479	-606	0
-479	606	0
479	-607	0
-479	607	0
479	-610	0
-479	610	0
653	479	0
-653	-479	0
509	489	0
-510	490	0
-505	-499	0
-500	-504	0
511	491	0
-512	-509	0
-514	-509	0
-515	-509	0
-516	-509	0
-517	510	0
-517	-515	0
-517	-514	0
-517	-512	0
-512	-511	0
-514	-511	0
-515	-511	0
-518	-511	0
-381	-675	0
552	-675	0
381	-676	0
-552	-676	0
-676	516	0
-675	516	0
-382	517	0
-383	-689	0
552	-689	0
383	-690	0
-552	-690	0
-690	518	0
-689	518	0
52	-464	0
-52	464	0
52	-465	0
-52	465	0
52	-525	0
-52	525	0
52	-552	0
-52	552	0
-410	388	0
-389	409	0
-386	17	0
-18	385	0
226	-409	0
-226	409	0
226	-411	0
-226	411	0
226	-474	0
-226	474	0
226	-524	0
-226	524	0
226	-570	0
-226	570	0
158	226	0
221	226	0
218	226	0
219	218	0
90	218	0
220	218	0
49	-163	0
-49	163	0
49	-164	0
-49	164	0
49	-168	0
-49	168	0
49	-174	0
-49	174	0
49	-182	0
-49	182	0
49	-185	0
-49	185	0
49	-190	0
-49	190	0
49	-220	0
-49	220	0
49	-229	0
-49	229	0
49	-232	0
-49	232	0
49	-241	0
-49	241	0
49	-246	0
-49	246	0
49	-251	0
-49	251	0
49	-254	0
-49	254	0
49	-290	0
-49	290	0
49	-293	0
-49	293	0
49	-307	0
-49	307	0
49	-368	0
-49	368	0
49	-370	0
-49	370	0
49	-374	0
-49	374	0
49	-378	0
-49	378	0
178	-180	0
-178	180	0
178	-181	0
-178	181	0
178	-219	0
-178	219	0
178	-222	0
-178	222	0
178	-228	0
-178	228	0
178	-231	0
-178	231	0
178	-234	0
-178	234	0
178	-248	0
-178	248	0
178	-250	0
-178	250	0
178	-253	0
-178	253	0
178	-292	0
-178	292	0
178	-295	0
-178	295	0
178	-298	0
-178	298	0
178	-306	0
-178	306	0
178	-309	0
-178	309	0
178	-317	0
-178	317	0
178	-364	0
-178	364	0
178	-367	0
-178	367	0
178	-369	0
-178	369	0
178	-371	0
-178	371	0
395	178	0
-395	-178	0
76	-161	0
-76	161	0
76	-162	0
-76	162	0
76	-165	0
-76	165	0
76	-167	0
-76	167	0
76	-169	0
-76	169	0
76	-173	0
-76	173	0
76	-175	0
-76	175	0
76	-184	0
-76	184	0
76	-186	0
-76	186	0
76	-189	0
-76	189	0
76	-191	0
-76	191	0
76	-225	0
-76	225	0
76	-240	0
-76	240	0
76	-242	0
-76	242	0
76	-245	0
-76	245	0
76	-303	0
-76	303	0
76	-313	0
-76	313	0
76	-373	0
-76	373	0
76	-375	0
-76	375	0
76	-377	0
-76	377	0
76	-395	0
-76	395	0
160	-170	0
-160	170	0
160	-171	0
-160	171	0
160	-176	0
-160	176	0
160	-179	0
-160	179	0
160	-187	0
-160	187	0
160	-192	0
-160	192	0
160	-223	0
-160	223	0
160	-224	0
-160	224	0
160	-235	0
-160	235	0
160	-243	0
-160	243	0
160	-249	0
-160	249	0
160	-296	0
-160	296	0
160	-299	0
-160	299	0
160	-304	0
-160	304	0
160	-310	0
-160	310	0
160	-314	0
-160	314	0
160	-318	0
-160	318	0
160	-365	0
-160	365	0
160	-372	0
-160	372	0
160	-376	0
-160	376	0
290	160	0
-290	-160	0
161	158	0
101	158	0
163	158	0
61	-387	0
-61	387	0
61	-388	0
-61	388	0
61	-390	0
-61	390	0
61	-393	0
-61	393	0
61	-398	0
-61	398	0
61	-448	0
-61	448	0
61	-453	0
-61	453	0
61	-456	0
-61	456	0
61	-460	0
-61	460	0
61	-463	0
-61	463	0
380	-384	0
-380	384	0
380	-385	0
-380	385	0
380	-392	0
-380	392	0
380	-397	0
-380	397	0
380	-447	0
-380	447	0
380	-452	0
-380	452	0
380	-455	0
-380	455	0
380	-459	0
-380	459	0
380	-462	0
-380	462	0
390	380	0
-390	-380	0
531	515	0
-581	-531	0
-446	-671	0
596	-671	0
446	-672	0
-596	-672	0
-672	581	0
-671	581	0
92	-595	0
-92	595	0
92	-596	0
-92	596	0
92	-599	0
-92	599	0
265	-326	0
-265	326	0
265	-327	0
-265	327	0
265	-449	0
-265	449	0
265	-470	0
-265	470	0
265	-472	0
-265	472	0
363	265	0
166	265	0
366	265	0
367	366	0
2	366	0
368	366	0
364	363	0
35	363	0
365	363	0
340	-583	0
-340	583	0
340	-584	0
-340	584	0
118	-263	0
-118	263	0
118	-264	0
-118	264	0
118	-339	0
-118	339	0
118	-342	0
-118	342	0
119	118	0
120	118	0
121	118	0
125	121	0
58	121	0
127	121	0
129	119	0
5	119	0
137	119	0
578	577	0
-578	-577	0
111	-255	0
-111	255	0
111	-256	0
-111	256	0
111	-578	0
-111	578	0
111	-582	0
-111	582	0
111	-592	0
-111	592	0
583	579	0
-583	-579	0
535	530	0
-535	-530	0
391	-534	0
-391	534	0
391	-535	0
-391	535	0
311	-324	0
-311	324	0
311	-325	0
-311	325	0
311	-394	0
-311	394	0
311	-473	0
-311	473	0
311	-496	0
-311	496	0
311	-523	0
-311	523	0
311	-549	0
-311	549	0
308	311	0
239	311	0
305	311	0
306	305	0
56	305	0
307	305	0
309	308	0
27	308	0
310	308	0
57	-526	0
-57	526	0
57	-527	0
-57	527	0
57	-533	0
-57	533	0
399	-400	0
-399	400	0
399	-401	0
-399	401	0
399	-532	0
-399	532	0
527	399	0
-527	-399	0
561	514	0
562	514	0
519	514	0
557	514	0
608	557	0
560	557	0
458	-559	0
-458	559	0
458	-560	0
-458	560	0
236	-544	0
-236	544	0
236	-545	0
-236	545	0
236	-569	0
-236	569	0
236	-594	0
-236	594	0
236	-641	0
-236	641	0
236	-642	0
-236	642	0
236	-645	0
-236	645	0
233	236	0
183	236	0
227	236	0
228	227	0
24	227	0
229	227	0
234	233	0
103	233	0
235	233	0
558	-608	0
-558	608	0
558	-609	0
-558	609	0
558	-611	0
-558	611	0
602	558	0
-602	-558	0
1	-601	0
-1	601	0
1	-602	0
-1	602	0
1	-629	0
-1	629	0
53	-572	0
-53	572	0
53	-573	0
-53	573	0
53	-575	0
-53	575	0
53	-603	0
-53	603	0
315	-536	0
-315	536	0
315	-537	0
-315	537	0
315	-540	0
-315	540	0
315	-568	0
-315	568	0
315	-637	0
-315	637	0
315	-638	0
-315	638	0
315	-640	0
-315	640	0
315	-643	0
-315	643	0
315	-644	0
-315	644	0
315	-646	0
-315	646	0
315	-647	0
-315	647	0
247	315	0
244	315	0
312	315	0
313	312	0
42	312	0
314	312	0
245	244	0
28	244	0
246	244	0
-563	-562	0
-520	-562	0
-553	-562	0
-454	-673	0
555	-673	0
454	-674	0
-555	-674	0
-674	553	0
-673	553	0
93	-554	0
-93	554	0
93	-555	0
-93	555	0
93	-580	0
-93	580	0
237	-320	0
-237	320	0
237	-321	0
-237	321	0
237	-457	0
-237	457	0
237	-521	0
-237	521	0
237	-542	0
-237	542	0
237	-564	0
-237	564	0
237	-585	0
-237	585	0
237	-591	0
-237	591	0
238	237	0
172	237	0
230	237	0
231	230	0
64	230	0
232	230	0
298	238	0
46	238	0
299	238	0
-396	-679	0
528	-679	0
396	-680	0
-528	-680	0
-680	520	0
-679	520	0
81	-528	0
-81	528	0
81	-529	0
-81	529	0
81	-576	0
-81	576	0
81	-614	0
-81	614	0
319	-466	0
-319	466	0
319	-467	0
-319	467	0
319	-468	0
-319	468	0
319	-522	0
-319	522	0
319	-547	0
-319	547	0
319	-597	0
-319	597	0
319	-600	0
-319	600	0
316	319	0
188	319	0
252	319	0
253	252	0
21	252	0
254	252	0
317	316	0
84	316	0
318	316	0
-451	-669	0
605	-669	0
451	-670	0
-605	-670	0
-670	563	0
-669	563	0
99	-604	0
-99	604	0
99	-605	0
-99	605	0
99	-616	0
-99	616	0
99	-617	0
-99	617	0
297	-565	0
-297	565	0
297	-566	0
-297	566	0
297	-567	0
-297	567	0
297	-589	0
-297	589	0
297	-636	0
-297	636	0
297	-639	0
-297	639	0
297	-662	0
-297	662	0
294	297	0
159	297	0
291	297	0
292	291	0
104	291	0
293	291	0
295	294	0
47	294	0
296	294	0
556	561	0
601	561	0
559	556	0
-559	-556	0
-379	-681	0
513	-681	0
379	-682	0
-513	-682	0
-682	512	0
-681	512	0
70	-322	0
-70	322	0
70	-323	0
-70	323	0
70	-513	0
-70	513	0
70	-598	0
-70	598	0
300	-402	0
-300	402	0
300	-403	0
-300	403	0
300	-407	0
-300	407	0
300	-469	0
-300	469	0
300	-471	0
-300	471	0
177	300	0
301	300	0
302	300	0
303	302	0
77	302	0
304	302	0
377	301	0
79	301	0
378	301	0
-508	-504	0
-538	-504	0
498	-538	0
-498	538	0
498	-539	0
-498	539	0
498	-543	0
-498	543	0
498	-586	0
-498	586	0
498	-588	0
-498	588	0
502	498	0
-502	-498	0
106	-502	0
-106	502	0
106	-503	0
-106	503	0
106	-541	0
-106	541	0
106	-546	0
-106	546	0
106	-587	0
-106	587	0
106	-590	0
-106	590	0
450	-507	0
-450	507	0
450	-508	0
-450	508	0
39	450	0
-39	-450	0
-507	-499	0
-503	-499	0
212	-404	0
-212	404	0
212	-405	0
-212	405	0
212	-406	0
-212	406	0
212	-431	0
-212	431	0
209	212	0
148	212	0
206	212	0
207	206	0
8	206	0
208	206	0
210	209	0
32	209	0
211	209	0
-114	-692	0
112	-692	0
114	-693	0
-112	-693	0
-693	691	0
-692	691	0
633	112	0
-633	-112	0
-634	113	0
635	114	0
-635	-114	0
-691	694	0
-686	694	0
685	-33	-17	0
687	117	-115	0
688	-117	115	0
-686	688	687	0
-116	115	117	0
-116	-115	-117	0
-627	626	628	0
-627	-626	-628	0
-487	631	634	0
-634	633	635	0
-634	-633	-635	0
-631	630	632	0
-631	-630	-632	0
-487	486	488	0
-487	-486	-488	0
683	436	-495	0
684	-436	495	0
-493	684	683	0
-437	-36	-436	0
-440	-438	-436	0
438	36	436	0
440	36	436	0
438	437	436	0
440	437	436	0
475	476	477	0
622	624	477	0
619	623	477	0
-659	-658	-620	0
-661	-656	-620	0
677	441	-648	0
678	-441	648	0
-548	678	677	0
-442	-102	-441	0
-445	-443	-441	0
443	102	441	0
445	102	441	0
443	442	441	0
445	442	441	0
156	154	153	0
94	154	153	0
157	154	153	0
156	68	153	0
94	68	153	0
157	68	153	0
156	155	153	0
94	155	153	0
157	155	153	0
-419	-31	-418	0
-421	-420	-418	0
420	31	418	0
421	31	418	0
420	419	418	0
421	419	418	0
282	280	279	0
83	280	279	0
283	280	279	0
282	75	279	0
83	75	279	0
283	75	279	0
282	281	279	0
83	281	279	0
283	281	279	0
-346	-37	-344	0
-349	-348	-344	0
348	37	344	0
349	37	344	0
348	346	344	0
349	346	344	0
198	196	195	0
55	196	195	0
199	196	195	0
198	87	195	0
55	87	195	0
199	87	195	0
198	197	195	0
55	197	195	0
199	197	195	0
606	482	476	0
478	650	476	0
484	432	480	0
-484	-432	480	0
-484	432	-480	0
484	-432	-480	0
-433	-86	-432	0
-435	-434	-432	0
434	86	432	0
435	86	432	0
434	433	432	0
435	433	432	0
146	144	143	0
14	144	143	0
147	144	143	0
146	16	143	0
14	16	143	0
147	16	143	0
146	145	143	0
14	145	143	0
147	145	143	0
-413	-43	-412	0
-416	-414	-412	0
414	43	412	0
416	43	412	0
414	413	412	0
416	413	412	0
136	135	133	0
13	135	133	0
138	135	133	0
136	100	133	0
13	100	133	0
138	100	133	0
136	134	133	0
13	134	133	0
138	134	133	0
504	499	489	0
-509	-499	-489	0
-509	-504	-489	0
-505	-506	511	0
-505	-504	509	0
-505	509	511	0
-500	-501	511	0
-500	-499	509	0
-500	509	511	0
-510	504	499	0
-490	489	491	0
-490	-489	-491	0
504	499	491	0
-511	-499	-491	0
-511	-504	-491	0
-510	509	511	0
-510	-509	-511	0
675	381	-552	0
676	-381	552	0
-516	676	675	0
-517	516	518	0
-517	-516	-518	0
689	383	-552	0
690	-383	552	0
-518	690	689	0
-385	-17	-381	0
-409	-388	-381	0
388	17	381	0
409	17	381	0
388	385	381	0
409	385	381	0
-410	-385	-17	0
-389	-385	-17	0
-386	-409	-388	0
-18	-409	-388	0
-382	381	383	0
-382	-381	-383	0
-385	-19	-383	0
-409	-388	-383	0
388	19	383	0
409	19	383	0
388	385	383	0
409	385	383	0
-225	-224	-221	0
224	222	221	0
225	222	221	0
224	41	221	0
225	41	221	0
224	223	221	0
225	223	221	0
532	534	515	0
530	533	515	0
-582	-579	-531	0
-584	-577	-531	0
671	446	-596	0
672	-446	596	0
-581	672	671	0
-447	-88	-446	0
-449	-448	-446	0
448	88	446	0
449	88	446	0
448	447	446	0
449	447	446	0
169	167	166	0
95	167	166	0
171	167	166	0
169	23	166	0
95	23	166	0
171	23	166	0
169	168	166	0
95	168	166	0
171	168	166	0
-345	-96	-340	0
-342	-347	-340	0
347	96	340	0
342	96	340	0
347	345	340	0
342	345	340	0
141	139	120	0
62	139	120	0
142	139	120	0
141	7	120	0
62	7	120	0
142	7	120	0
141	140	120	0
62	140	120	0
142	140	120	0
-392	-108	-391	0
-394	-393	-391	0
393	108	391	0
394	108	391	0
393	392	391	0
394	392	391	0
242	240	239	0
48	240	239	0
243	240	239	0
242	15	239	0
48	15	239	0
243	15	239	0
242	241	239	0
48	241	239	0
243	241	239	0
-557	-608	-560	0
-459	-60	-458	0
-544	-460	-458	0
460	60	458	0
544	60	458	0
460	459	458	0
544	459	458	0
186	184	183	0
59	184	183	0
187	184	183	0
186	10	183	0
59	10	183	0
187	10	183	0
186	185	183	0
59	185	183	0
187	185	183	0
572	461	519	0
-572	-461	519	0
-572	461	-519	0
572	-461	-519	0
-462	-26	-461	0
-536	-463	-461	0
463	26	461	0
536	26	461	0
463	462	461	0
536	462	461	0
250	248	247	0
22	248	247	0
251	248	247	0
250	65	247	0
22	65	247	0
251	65	247	0
250	249	247	0
22	249	247	0
251	249	247	0
673	454	-555	0
674	-454	555	0
-553	674	673	0
-455	-33	-454	0
-457	-456	-454	0
456	33	454	0
457	33	454	0
456	455	454	0
457	455	454	0
175	173	172	0
54	173	172	0
176	173	172	0
175	12	172	0
54	12	172	0
176	12	172	0
175	174	172	0
54	174	172	0
176	174	172	0
679	396	-528	0
680	-396	528	0
-520	680	679	0
-397	-4	-396	0
-466	-398	-396	0
398	4	396	0
466	4	396	0
398	397	396	0
466	397	396	0
191	189	188	0
71	189	188	0
192	189	188	0
191	98	188	0
71	98	188	0
192	98	188	0
191	190	188	0
71	190	188	0
192	190	188	0
669	451	-605	0
670	-451	605	0
-563	670	669	0
-452	-9	-451	0
-565	-453	-451	0
453	9	451	0
565	9	451	0
453	452	451	0
565	452	451	0
165	162	159	0
6	162	159	0
170	162	159	0
165	29	159	0
6	29	159	0
170	29	159	0
165	164	159	0
6	164	159	0
170	164	159	0
-561	-556	-601	0
681	379	-513	0
682	-379	513	0
-512	682	681	0
-384	-44	-379	0
-402	-387	-379	0
387	44	379	0
402	44	379	0
387	384	379	0
402	384	379	0
181	180	177	0
73	180	177	0
182	180	177	0
181	85	177	0
73	85	177	0
182	85	177	0
181	179	177	0
73	179	177	0
182	179	177	0
504	508	538	0
499	507	503	0
-429	-72	-428	0
-431	-430	-428	0
430	72	428	0
431	72	428	0
430	429	428	0
431	429	428	0
151	149	148	0
89	149	148	0
152	149	148	0
151	97	148	0
89	97	148	0
152	97	148	0
151	150	148	0
89	150	148	0
152	150	148	0
692	114	-112	0
693	-114	112	0
-691	693	692	0
-113	112	114	0
-113	-112	-114	0
-694	691	686	0
-274	-277	-110	-278	0
-269	-270	-30	-271	0
-266	-267	-80	-268	0
-273	-275	-109	-276	0
-620	-623	-624	-477	0
-620	-619	-624	-477	0
-620	-623	-622	-477	0
-620	-619	-622	-477	0
548	656	658	620	0
548	661	658	620	0
548	656	659	620	0
548	661	659	620	0
-415	-425	-153	-422	0
-422	-423	-63	-424	0
-155	-68	-154	-153	0
-157	-94	-156	-153	0
-425	-426	-40	-427	0
-343	-279	-355	-352	0
-352	-353	-105	-354	0
-355	-356	-11	-357	0
-281	-75	-280	-279	0
-283	-83	-282	-279	0
-193	-194	-195	-122	0
-122	-124	-20	-126	0
-197	-87	-196	-195	0
-199	-55	-198	-195	0
-194	-200	-38	-201	0
-480	-650	-482	-476	0
-480	-478	-482	-476	0
-480	-650	-606	-476	0
-480	-478	-606	-476	0
-216	-143	-217	-213	0
-213	-214	-107	-215	0
-217	-288	-82	-289	0
-145	-16	-144	-143	0
-147	-14	-146	-143	0
-205	-202	-133	-130	0
-130	-131	-67	-132	0
-134	-100	-135	-133	0
-138	-13	-136	-133	0
-202	-203	-74	-204	0
-226	-158	-221	-218	0
-218	-219	-90	-220	0
-223	-41	-222	-221	0
-158	-161	-101	-163	0
-531	-533	-534	-515	0
-531	-530	-534	-515	0
-531	-533	-532	-515	0
-531	-530	-532	-515	0
581	577	579	531	0
581	584	579	531	0
581	577	582	531	0
581	584	582	531	0
-265	-363	-166	-366	0
-366	-367	-2	-368	0
-168	-23	-167	-166	0
-171	-95	-169	-166	0
-363	-364	-35	-365	0
-118	-119	-120	-121	0
-121	-125	-58	-127	0
-140	-7	-139	-120	0
-142	-62	-141	-120	0
-119	-129	-5	-137	0
-311	-308	-239	-305	0
-305	-306	-56	-307	0
-241	-15	-240	-239	0
-243	-48	-242	-239	0
-308	-309	-27	-310	0
-236	-233	-183	-227	0
-227	-228	-24	-229	0
-185	-10	-184	-183	0
-187	-59	-186	-183	0
-233	-234	-103	-235	0
-315	-247	-244	-312	0
-312	-313	-42	-314	0
-244	-245	-28	-246	0
-249	-65	-248	-247	0
-251	-22	-250	-247	0
562	563	520	553	0
-237	-238	-172	-230	0
-230	-231	-64	-232	0
-174	-12	-173	-172	0
-176	-54	-175	-172	0
-238	-298	-46	-299	0
-319	-316	-188	-252	0
-252	-253	-21	-254	0
-190	-98	-189	-188	0
-192	-71	-191	-188	0
-316	-317	-84	-318	0
-297	-294	-159	-291	0
-291	-292	-104	-293	0
-164	-29	-162	-159	0
-170	-6	-165	-159	0
-294	-295	-47	-296	0
-300	-177	-301	-302	0
-302	-303	-77	-304	0
-301	-377	-79	-378	0
-179	-85	-180	-177	0
-182	-73	-181	-177	0
-212	-209	-148	-206	0
-206	-207	-8	-208	0
-150	-97	-149	-148	0
-152	-89	-151	-148	0
-209	-210	-32	-211	0
486	428	489	492	493	0
488	428	491	492	493	0
-272	-273	-266	-269	-274	0
509	512	514	515	516	0
511	512	514	515	518	0
-514	-561	-562	-519	-557	0
